c read Graph
c width = 229
c time = 208 ms
c width = 16
c time = 312 ms
c width = 15
c time = 620 ms
c width = 14
c time = 1391 ms
c width = 13
c time = 6611 ms
c width = 12
c time = 12471 ms
c width = 12
c time = 14003 ms
s td 271 13 288
b 1 23 24
b 2 265 266
b 3 1 2 3
b 4 1 3 26
b 5 19 21 46 47
b 6 19 45 46 47
b 7 19 45 47 71
b 8 45 69 70 71
b 9 218 242 243 268
b 10 218 243 244 268
b 11 218 244 268 270
b 12 19 43 44 45
b 13 218 219 220 244
b 14 244 245 246 270
b 15 3 5 26 28
b 16 5 7 26 28 30
b 17 7 9 26 28 30 32
b 18 9 26 28 30 32 34 36 62 88 114 140 166 191
b 19 26 28 30 32 34 35 36 62 88 114 140 166 191
b 20 26 28 30 32 33 34 35 62 88 114 140 166 191
b 21 26 28 30 31 32 33 35 62 88 114 140 166 191
b 22 26 28 29 30 31 33 35 62 88 114 140 166 191
b 23 26 27 28 29 31 33 35 62 88 114 140 166 191
b 24 26 27 29 31 33 35 52 62 88 114 140 166 191
b 25 26 29 31 33 35 52 54 62 88 114 140 166 191
b 26 26 31 33 35 52 54 56 62 88 114 140 166 191
b 27 26 33 35 52 54 56 58 62 88 114 140 166 191
b 28 26 35 52 54 56 58 60 62 88 114 140 166 191
b 29 26 50 52 54 56 58 60 62 88 114 140 166 191
b 30 50 52 54 56 58 60 62 86 88 114 140 166 191
b 31 50 52 54 56 58 60 84 86 88 114 140 166 191
b 32 50 52 54 56 57 58 84 86 88 114 140 166 191
b 33 50 52 54 55 56 57 84 86 88 114 140 166 191
b 34 50 52 53 54 55 57 84 86 88 114 140 166 191
b 35 50 51 52 53 55 57 84 86 88 114 140 166 191
b 36 50 51 53 55 57 74 84 86 88 114 140 166 191
b 37 51 53 55 57 74 76 84 86 88 114 140 166 191
b 38 53 55 57 74 76 78 84 86 88 114 140 166 191
b 39 55 57 74 76 78 80 84 86 88 114 140 166 191
b 40 57 74 76 78 80 82 84 86 88 114 140 166 191
b 41 74 76 78 80 82 84 86 88 112 114 140 166 191
b 42 74 76 78 80 82 84 85 86 112 114 140 166 191
b 43 74 76 78 80 82 83 84 85 112 114 140 166 191
b 44 74 76 78 80 82 83 85 106 112 114 140 166 191
b 45 74 76 78 80 83 85 106 108 112 114 140 166 191
b 46 74 76 78 80 85 106 108 110 112 114 140 166 191
b 47 74 76 78 80 106 108 110 112 114 138 140 166 191
b 48 74 76 78 80 106 108 110 112 136 138 140 166 191
b 49 110 111 112 136
b 50 74 76 78 80 106 108 110 136 138 140 164 166 191
b 51 74 76 78 80 106 108 110 136 138 162 164 166 191
b 52 136 137 138 162
b 53 74 76 78 80 104 106 108 110 136 162 164 166 191
b 54 74 76 78 102 104 106 108 110 136 162 164 166 191
b 55 74 76 102 104 106 108 110 134 136 162 164 166 191
b 56 74 76 102 104 106 107 108 134 136 162 164 166 191
b 57 74 76 102 104 106 107 130 134 136 162 164 166 191
b 58 74 76 102 104 107 128 130 134 136 162 164 166 191
b 59 74 76 102 107 128 130 132 134 136 162 164 166 191
b 60 74 76 102 128 130 132 134 136 160 162 164 166 191
b 61 74 76 102 128 130 132 134 158 160 162 164 166 191
b 62 74 76 102 128 130 132 156 158 160 162 164 166 191
b 63 74 76 102 128 130 154 156 158 160 162 164 166 191
b 64 74 76 102 128 154 156 158 160 162 164 166 190 191
b 65 74 76 102 128 154 156 158 160 162 163 164 190 191
b 66 74 76 102 128 154 156 158 160 162 163 186 190 191
b 67 74 76 102 128 154 156 158 160 163 184 186 190 191
b 68 74 76 102 128 154 156 157 158 163 184 186 190 191
b 69 74 76 102 128 154 156 157 163 182 184 186 190 191
b 70 74 76 102 128 154 156 163 182 184 186 188 190 191
b 71 74 76 102 128 154 156 182 184 186 188 190 191 214
b 72 74 76 102 128 154 156 182 184 186 188 191 212 214
b 73 74 76 102 128 154 156 182 184 186 191 210 212 214
b 74 74 76 102 128 154 156 182 184 191 208 210 212 214
b 75 74 76 102 128 154 156 182 191 208 210 212 214 239
b 76 74 76 102 128 154 156 182 208 210 212 214 238 239
b 77 74 76 102 128 154 156 182 208 210 212 236 238 239
b 78 74 76 102 128 154 156 182 208 210 234 236 238 239
b 79 74 76 102 128 154 156 182 207 208 234 236 238 239
b 80 74 76 102 128 154 156 182 207 234 236 238 239 262
b 81 74 76 102 128 154 156 182 207 234 236 239 260 262
b 82 74 76 102 128 154 156 182 207 234 239 260 262 284
b 83 74 76 102 128 154 156 182 207 234 258 260 262 284
b 84 74 76 102 128 154 156 182 207 232 234 258 262 284
b 85 74 76 102 128 154 156 182 206 207 232 258 262 284
b 86 74 76 102 128 154 156 182 206 232 258 262 276 284
b 87 74 76 102 128 154 156 180 182 206 232 258 276 284
b 88 74 76 102 128 154 179 180 182 206 232 258 276 284
b 89 74 76 102 128 154 178 179 204 206 232 258 276 284
b 90 74 76 102 128 154 178 204 206 230 232 258 276 284
b 91 74 76 102 128 154 178 204 230 232 256 258 276 284
b 92 74 76 102 128 154 178 204 230 256 258 276 280 284
b 93 74 76 102 128 154 178 204 228 230 252 256 276 280
b 94 228 230 252 254 256 276 280
b 95 252 254 276 278 280
b 96 252 253 254 278
b 97 228 229 230 254
b 98 254 255 256 280
b 99 256 258 280 282 284
b 100 256 257 258 282
b 101 230 231 232 256
b 102 204 205 206 230
b 103 154 155 156 180
b 104 180 181 182 206
b 105 232 233 234 258
b 106 258 259 260 284
b 107 239 260 262 284 286
b 108 260 261 262 286
b 109 239 262 263 286
b 110 234 235 236 260
b 111 236 237 238 262
b 112 208 209 210 234
b 113 210 211 212 236
b 114 212 213 214 238
b 115 191 214 215 239
b 116 182 183 184 208
b 117 184 185 186 210
b 118 186 187 188 212
b 119 188 189 190 191 214
b 120 158 159 160 184
b 121 160 161 162 186
b 122 164 165 166 190
b 123 128 129 130 154
b 124 130 131 132 156
b 125 132 133 134 158
b 126 134 135 136 160
b 127 102 103 104 128
b 128 104 105 106 130
b 129 108 109 110 134
b 130 76 77 78 102
b 131 78 79 80 104
b 132 138 139 140 164 166 191
b 133 112 113 114 138
b 134 80 81 82 106
b 135 86 87 88 112
b 136 58 59 60 84
b 137 60 61 62 86
b 138 9 36 62 88 114 140 143 166 191
b 139 143 166 167 191
b 140 9 36 62 88 114 116 118 140 143 166
b 141 116 118 140 142 143 166
b 142 140 141 142 166
b 143 116 117 118 142
b 144 114 115 116 140
b 145 9 13 36 62 88 114 116 118 143
b 146 9 11 13 36
b 147 13 36 62 88 90 114 116 118 143
b 148 88 89 90 114
b 149 13 36 62 64 88 90 116 118 143
b 150 13 36 40 62 64 90 116 118 143
b 151 13 40 64 90 92 116 118 143
b 152 13 40 64 66 90 92 118 143
b 153 64 65 66 90
b 154 13 40 66 92 95 118 143
b 155 95 118 119 143
b 156 13 17 40 66 92 95 118
b 157 13 15 17 40
b 158 17 40 66 69 92 95 118
b 159 69 92 93 95 118
b 160 69 93 94 95
b 161 17 40 43 66 69 92 95
b 162 43 66 67 69 92
b 163 43 67 68 69
b 164 17 43 69 71 95
b 165 17 19 43 69 71
b 166 19 43 45 69 71
b 167 17 40 42 43 66
b 168 40 41 42 66
b 169 90 91 92 116
b 170 13 36 38 40 62 64
b 171 36 37 38 62
b 172 38 39 40 64
b 173 62 63 64 88
b 174 150 151 152 176
b 175 122 148 150 152 176 178 204 228 252 276
b 176 74 76 102 128 152 154 178 204 228 252 276
b 177 74 76 102 122 126 128 148 150 152
b 178 74 76 102 122 128 148 150 152 178 204 228 252 276
b 179 122 128 148 150 152 178 204 228 252 276
b 180 122 148 150 176 178 202 204 228 252 276
b 181 122 148 150 176 202 226 228 252 276
b 182 226 227 228 252
b 183 122 148 150 176 200 202 226 252 276
b 184 200 201 202 226
b 185 122 148 150 174 176 200 226 252 276
b 186 148 149 150 174
b 187 174 175 176 200
b 188 122 148 174 200 226 250 252 276
b 189 250 251 252 276
b 190 122 148 174 200 224 226 250 276
b 191 224 225 226 250
b 192 122 148 174 198 200 224 250 276
b 193 198 199 200 224
b 194 122 148 172 174 198 224 250 276
b 195 122 148 170 172 198 224 250 276
b 196 122 147 148 170 172
b 197 122 146 147 170
b 198 170 172 198 224 248 250 272 276
b 199 248 250 272 274 276
b 200 248 249 250 274
b 201 170 172 198 222 224 248 272
b 202 170 172 196 198 222 248 272
b 203 170 196 222 246 248 272
b 204 170 196 220 222 246 272
b 205 170 196 218 220 246 272
b 206 218 220 246 270 272
b 207 218 220 244 246 270
b 208 170 195 196 218 220
b 209 170 194 195 218
b 210 220 221 222 246
b 211 246 247 248 272
b 212 196 197 198 222
b 213 170 171 172 196
b 214 222 223 224 248
b 215 172 173 174 198
b 216 202 203 204 228
b 217 176 177 178 202
b 218 126 127 128 152
b 219 152 153 154 178
b 220 74 76 102 122 124 126 148 150
b 221 124 125 126 150
b 222 122 123 124 148
b 223 74 76 100 102 122 124 126
b 224 74 99 100 122 124
b 225 74 98 99 122
b 226 100 101 102 126
b 227 74 75 76 100
b 228 284 285 286
b 229 282 283 284
b 230 280 281 282
b 231 278 279 280
b 232 276 277 278
b 233 274 275 276
b 234 272 273 274
b 235 270 271 272
b 236 268 269 270
b 237 263 286 287
b 238 263 287 288
b 239 241 242 268
b 240 241 267 268
b 241 241 266 267
b 242 239 263 264
b 243 217 218 242
b 244 215 239 240
b 245 193 194 218
b 246 191 215 216
b 247 169 170 194
b 248 167 191 192
b 249 145 146 170
b 250 143 167 168
b 251 121 122 146
b 252 119 143 144
b 253 97 98 122
b 254 95 119 120
b 255 73 74 98
b 256 71 95 96
b 257 49 50 74
b 258 47 71 72
b 259 25 26 50
b 260 21 23 48
b 261 21 47 48
b 262 21 22 23
b 263 19 20 21
b 264 17 18 19
b 265 15 16 17
b 266 13 14 15
b 267 11 12 13
b 268 9 10 11
b 269 7 8 9
b 270 5 6 7
b 271 3 4 5
1 260
2 241
3 4
4 15
5 263
5 261
5 6
6 7
7 258
7 166
8 166
9 243
9 239
9 10
10 11
11 236
11 207
12 166
13 207
14 207
15 271
15 16
16 270
16 17
17 269
17 18
18 138
18 19
19 20
20 21
21 22
22 23
23 24
24 25
25 26
26 27
27 28
28 29
29 259
29 30
30 137
30 31
31 136
31 32
32 33
33 34
34 35
35 36
36 257
36 37
37 38
38 39
39 40
40 41
41 135
41 42
42 43
43 44
44 134
44 45
45 46
46 47
47 133
47 48
48 50
48 49
50 51
50 132
51 53
51 52
53 131
53 54
54 130
54 55
55 129
55 56
56 57
57 128
57 58
58 127
58 59
59 60
60 126
60 61
61 125
61 62
62 124
62 63
63 123
63 64
64 122
64 65
65 66
66 121
66 67
67 120
67 68
68 69
69 70
70 71
71 119
71 72
72 118
72 73
73 117
73 74
74 116
74 75
75 115
75 76
76 114
76 77
77 113
77 78
78 112
78 79
79 80
80 111
80 81
81 110
81 82
82 107
82 83
83 106
83 84
84 105
84 85
85 86
86 87
87 103
87 104
87 88
88 89
89 90
90 102
90 91
91 101
91 92
92 99
92 93
93 176
93 94
94 95
94 97
94 98
95 232
95 231
95 96
99 230
99 229
99 100
107 228
107 108
107 109
109 242
109 237
115 246
115 244
138 139
138 140
139 250
139 248
140 145
140 141
140 144
141 142
141 143
145 146
145 147
146 268
146 267
147 148
147 149
149 173
149 150
150 170
150 151
151 169
151 152
152 153
152 154
154 155
154 156
155 254
155 252
156 157
156 158
157 266
157 265
158 159
158 161
159 160
161 167
161 164
161 162
162 163
164 256
164 165
165 264
165 166
167 168
170 172
170 171
174 175
175 180
175 179
176 219
176 178
177 218
177 220
177 178
178 179
180 217
180 216
180 181
181 182
181 183
183 184
183 185
185 188
185 187
185 186
188 189
188 190
190 191
190 192
192 193
192 194
194 215
194 195
195 196
195 198
196 197
197 251
197 249
198 199
198 201
199 234
199 233
199 200
201 214
201 202
202 213
202 212
202 203
203 211
203 204
204 210
204 205
205 208
205 206
206 235
206 207
208 209
209 247
209 245
220 222
220 223
220 221
223 224
223 226
223 227
224 225
225 255
225 253
237 238
239 240
240 241
260 262
260 261
